139
10000000
1802438
1887140
1755596
1351751
499153
1814133
1188636
243154
268762
1457215
590356
1046660
1759351
142608
1047485
1999397
316028
1509936
196210
1805766
994010
2410783
1185406
2076557
189540
1423386
1795330
947757
291556
1141345
1844476
2147446
76029
786684
2128570
650393
1337242
2017242
127484
1590174
1533100
518678
1356149
2491649
1789326
333
1326042
2386489
962093
12259
328029
213193
1367090
327173
31508
1687841
713068
3931
1069814
375174
830010
78928
2043552
2238948
676989
340796
1238994
474322
167333
182236
179973
1295166
107464
233694
1404785
779580
764203
2017623
2113227
2394474
1270153
303601
1154253
1669997
602833
1442224
197104
279981
2075196
1449955
1942409
1359346
335419
1298839
1469315
543159
954217
331794
1541940
2206526
2360636
1370323
719756
1280052
2119089
634336
1992631
2393417
1556095
2272120
1389241
356343
589151
188077
1478327
674243
122328
2300601
1289542
674378
2224449
1142243
13433
73984
1900504
1311142
100053
1397125
1932290
526894
2418149
264320
212495
154272
885998
214119
14265
1021483
105414
